1 7
2 4
3 10
4
5 3 -6 4 -2 3 -6 -4
6
7 0 6 10 25 21 20 20 20
8 4 0 21 5 20 30 20 27
9 9 26 0 20 4 27 26 17
10 30 6 15 0 25 16 10 7
11 16 21 5 24 0 14 7 11
12 14 30 24 15 14 0 22 19
13 20 20 29 14 9 20 0 21
14 15 27 17 9 13 20 20 0
